NAME: ACTUAL_TOURS/amz0608
TYPE: TOUR
COMMENT: RouteID_3fe85653-54f4-4294-a553-ff428caf886d
DIMENSION: 155
TOUR_SECTION
58
65
134
96
120
154
71
98
78
33
102
135
59
38
123
43
138
139
95
72
141
42
109
88
54
89
52
132
82
2
75
152
57
121
10
40
6
85
115
22
118
36
153
68
66
91
27
103
112
44
9
53
114
145
84
14
155
45
51
94
70
69
151
122
16
143
76
39
8
104
92
13
31
47
128
4
97
101
126
55
136
20
25
116
133
79
127
87
81
93
73
125
34
131
15
119
37
17
107
106
149
100
99
150
124
105
142
130
49
110
11
64
23
83
32
21
137
41
108
3
28
62
129
144
19
90
61
140
35
148
24
74
111
67
113
26
146
1
117
147
29
46
56
18
30
50
80
5
7
77
48
63
12
86
60
-1
EOF
